p tw 30 36
1 2
2 13
3 4
3 22
4 5
4 8
4 17
4 22
4 20
5 6
6 7
7 22
8 9
9 10
10 11
10 14
11 12
12 22
13 24
14 15
15 16
16 22
17 18
18 19
19 22
20 21
21 22
22 23
24 25
25 26
26 27
27 28
27 29
28 29
29 30
30 3
